NAME : tsp
COMMENT : a comment by the user
TYPE : TSP
DIMENSION : 50
EDGE_WEIGHT_TYPE : EXPLICIT
EDGE_WEIGHT_FORMAT: FULL_MATRIX
EDGE_WEIGHT_SECTION
0 3438 19169 15164 42541 38836 7158 49324 16628 35485 27885 49053 20406 2568 14694 32768 45735 52506 19049 36322 14987 22072 26016 20124 22746 47458 46508 12508 28938 34603 7800 40454 48227 27136 38052 33773 41596 38632 11127 37236 7282 27596 45610 47658 12054 13684 29935 47639 43849 18619
3438 0 18116 17227 40926 37146 4556 48824 15833 37404 25555 48585 23661 930 16235 35523 46063 52136 16334 35923 18353 21354 25221 17215 25696 47775 47210 15373 29086 35075 11235 39726 47170 24772 37295 30560 41940 38517 14565 36764 9902 28566 47914 47760 10198 16384 32273 47964 43718 20012
19169 18116 0 16145 23652 20114 14068 30884 2775 28906 12549 30677 28600 18058 13233 33174 29747 34317 10745 18229 30468 3687 7200 12723 26996 31379 32044 30680 13239 19801 23630 21653 29099 12184 19213 25127 25818 21306 25523 18950 26172 16452 40766 30817 8423 19433 27330 31584 26356 13529
15164 17227 16145 0 37839 34816 16887 39416 13757 20320 28619 39041 12568 16433 2912 19179 33202 42003 23775 26832 17555 16478 19694 25678 11071 34904 32954 20623 18140 22137 13296 31949 40607 28181 29865 39791 29167 27889 13122 27954 18613 14118 30705 35749 16132 4197 15115 35058 32866 5070
42541 40926 23652 37839 0 3872 36457 17109 26398 40485 17267 17338 50211 41068 35160 49738 25559 20633 26611 15445 53905 21721 18163 27164 47171 26218 30536 54327 22294 24495 47252 11358 9863 18087 11305 27428 24241 18393 48964 14532 49701 29255 50988 23641 30730 41788 43093 26401 19215 33490
38836 37146 20114 34816 3872 0 32658 19297 22881 39110 13457 19440 47297 37308 32065 47725 26265 22991 22741 14743 50512 18467 15151 23316 44511 27146 30994 50733 20342 23489 43745 11863 12932 14268 10994 24419 24362 18215 45565 14052 46028 27291 50034 24821 26959 38669 41113 27342 20063 30672
7158 4556 14068 16887 36457 32658 0 44943 12059 36308 21007 44728 25520 4934 15186 35929 42910 48343 11916 32177 21914 17506 21260 12968 26685 44602 44442 19633 25904 32154 14522 35715 42934 20229 33274 26779 38828 34994 17631 32956 14268 26308 47349 44381 5809 17171 31929 44797 40151 18552
49324 48824 30884 39416 17109 19297 44943 0 32995 33016 30927 517 50010 48649 37517 44490 11858 3778 38336 13022 56953 27479 23685 39568 45628 11576 16911 59218 21308 18423 51683 9475 8182 31584 11871 43586 13297 11588 52342 12088 55684 26352 40884 8577 39286 43602 38237 11683 7272 34357
16628 15833 2775 13757 26398 22881 12059 32995 0 28122 14875 32761 26078 15691 10860 31461 31040 36336 11331 20141 27694 5521 9420 13357 24745 32710 32951 27954 14147 20615 20866 23917 31601 14424 21494 26640 27012 22946 22750 20951 23529 16169 39897 32369 6829 16844 25881 32910 28093 11728
35485 37404 28906 20320 40485 39110 36308 33016 28122 0 39879 32510 23134 36656 21237 12047 22215 33892 39417 25166 33824 26465 26793 41440 17789 23439 18986 38848 19128 16132 32474 30180 38150 39843 29366 53769 19731 23169 30983 26206 38237 12855 11876 25750 33661 22630 7470 23484 25827 17772
27885 25555 12549 28619 17267 13457 21007 30927 14875 39879 0 30926 40930 25919 25713 45467 34409 34702 9728 21379 41396 13661 13275 9965 39538 35741 38130 40329 21488 27286 34106 21776 25974 842 19714 14465 31252 25303 36564 21423 35155 27024 51693 34166 15927 31655 39375 35954 29177 26006
49053 48585 30677 39041 17338 19440 44728 517 32761 32510 30926 0 49584 48401 37163 43997 11345 3795 38239 12736 56584 27249 23476 39492 45184 11078 16405 58887 20947 17969 51350 9371 8561 31574 11740 43682 12788 11186 51984 11828 55384 25923 40367 8080 39086 43224 37753 11187 6787 33978
20406 23661 28600 12568 50211 47297 25520 50010 26078 23134 40930 49584 0 22731 15441 14831 41952 52138 35028 38137 11398 29039 32147 36761 5344 43538 40373 17387 29360 31759 13596 43467 52227 40436 41570 51098 38272 38454 10597 39301 19026 23663 29526 45001 26951 9309 15703 43653 43012 16747
2568 930 18058 16433 41068 37308 4934 48649 15691 36656 25919 48401 22731 0 15534 34636 45672 51927 16829 35712 17541 21209 25105 17791 24784 47387 46729 14762 28726 34641 10365 39608 47149 25147 37183 31280 41543 38233 13680 36574 9347 28009 47100 47426 10353 15495 31448 47574 43442 19351
14694 16235 13233 2912 35160 32065 15186 37517 10860 21237 25713 37163 15441 15534 0 21487 32019 40257 21104 24736 19525 13658 16996 23040 13908 33738 32209 21896 16219 20838 14381 29716 38291 25281 27558 37051 27919 26101 14828 25828 19199 13188 32163 34364 13689 6630 16844 33902 31187 3953
32768 35523 33174 19179 49738 47725 35929 44490 31461 12047 45467 43997 14831 34636 21487 0 34136 45659 42427 35112 26224 31896 33568 44405 10350 35422 31031 32172 27456 26591 27421 40441 48872 45221 39200 58101 31351 33883 24926 36246 33198 20486 14816 37625 35175 19141 6647 35475 37224 19734
45735 46063 29747 33202 25559 26265 42910 11858 31040 22215 34409 11345 41952 45672 32019 34136 0 11838 39389 13030 50469 26061 23197 41040 37060 1724 5193 53796 17013 11197 46350 14418 19053 34847 15514 48532 4139 9117 46295 13081 51159 19098 29111 3582 37855 37160 28363 1903 6352 28277
52506 52136 34317 42003 20633 22991 48343 3778 36336 33892 34702 3795 52138 51927 40257 45659 11838 0 42023 16215 59558 30841 27121 43284 47565 11024 16390 62081 24060 20379 54539 13158 11219 35356 15511 47328 14339 14155 55038 15388 58720 28520 40817 8257 42737 46159 39620 11065 9168 36934
19049 16334 10745 23775 26611 22741 11916 38336 11331 39417 9728 38239 35028 16829 21104 42427 39389 42023 0 26878 33446 14017 16209 2026 34782 40929 42210 31546 23675 30193 26018 28868 34560 8892 26521 16094 35680 30475 28857 27299 26176 27166 51218 39933 8115 25823 37099 41140 35137 22825
36322 35923 18229 26832 15445 14743 32177 13022 20141 25166 21379 12736 38137 35712 24736 35112 13030 16215 26878 0 44255 14674 11103 28401 34225 14382 17008 46270 8790 9072 38747 5423 14161 21824 4200 35547 10113 3945 39550 1174 42665 15054 35547 13075 26646 31029 28498 14596 8271 21845
14987 18353 30468 17555 53905 50512 21914 56953 27694 33824 41396 56584 11398 17541 19525 26224 50469 59558 33446 44255 0 32208 35950 34756 16416 52143 49680 6353 35652 39566 7431 49230 57755 40733 47044 48687 46515 45443 4947 45351 9994 31413 40916 53170 25651 13408 26597 52285 50415 22625
22072 21354 3687 16478 21721 18467 17506 27479 5521 26465 13661 27249 29039 21209 13658 31896 26061 30841 14017 14674 32208 0 3952 15917 26776 27692 28418 33033 9685 16237 25743 18407 26227 13512 15991 27305 22141 17648 27277 15453 28835 13705 38335 27147 12004 20225 25726 27897 22731 12863
26016 25221 7200 19694 18163 15151 21260 23685 9420 26793 13275 23476 32147 25105 16996 33568 23197 27121 16209 11103 35950 3952 0 17920 29450 24760 26068 36944 8242 14372 29612 14505 22279 13373 12077 27614 19473 14408 31039 11772 32785 13983 38528 23934 15616 23624 27139 24970 19320 15548
20124 17215 12723 25678 27164 23316 12968 39568 13357 41440 9965 39492 36761 17791 23040 44405 41040 43284 2026 28401 34756 15917 17920 0 36652 42557 43974 32554 25539 32031 27326 30129 35457 9126 27823 14342 37387 32066 30259 28768 27115 29161 53244 41474 9810 27606 39110 42769 36633 24830
22746 25696 26996 11071 47171 44511 26685 45628 24745 17789 39538 45184 5344 24784 13908 10350 37060 47565 34782 34225 16416 26776 29450 36652 0 38608 35247 22061 25567 27235 17074 39627 48385 39137 37882 50836 33501 34169 14616 35399 22849 19354 24640 40208 26965 9513 10363 38714 38512 13945
47458 47775 31379 34904 26218 27146 44602 11576 32710 23439 35741 11078 43538 47387 33738 35422 1724 11024 40929 14382 52143 27692 24760 42557 38608 0 5401 55504 18713 12920 48063 15285 19172 36201 16579 49772 5862 10530 47989 14336 52881 20793 29792 2998 39520 38849 29764 213 7083 29988
46508 47210 32044 32954 30536 30994 44442 16911 32951 18986 38130 16405 40373 46729 32209 31031 5193 16390 42210 17008 49680 28418 26068 43974 35247 5401 0 53529 18840 12339 46249 19255 24246 38494 20063 52463 6907 13097 45815 17305 51385 19021 24466 8363 39763 36661 25803 5337 11437 28304
12508 15373 30680 20623 54327 50733 19633 59218 27954 38848 40329 58887 17387 14762 21896 32172 53796 62081 31546 46270 6353 33033 36944 32554 22061 55504 53529 0 38022 42667 7541 50930 59166 39594 48624 45838 49732 47933 7888 47302 5526 34737 46700 56241 24417 16897 31884 55661 53057 25523
28938 29086 13239 18140 22294 20342 25904 21308 14147 19128 21488 20947 29360 28726 16219 27456 17013 24060 23675 8790 35652 9685 8242 25539 25567 18713 18840 38022 0 6561 30481 14111 22877 21610 12316 35856 12924 9912 31036 9947 34793 6971 30631 18723 20976 22335 20819 18906 15070 13107
34603 35075 19801 22137 24495 23489 32154 18423 20615 16132 27286 17969 31759 34641 20838 26591 11197 20379 30193 9072 39566 16237 14372 32031 27235 12920 12339 42667 6561 0 35194 14067 22294 27509 13268 41749 7082 7294 35258 10082 39961 8201 26561 13615 27423 26179 20107 13092 11278 17148
7800 11235 23630 13296 47252 43745 14522 51683 20866 32474 34106 51350 13596 10365 14381 27421 46350 54539 26018 38747 7431 25743 29612 27326 17074 48063 46249 7541 30481 35194 0 43454 51760 33425 41168 41301 42269 40392 3381 39787 5853 27345 41327 48743 18276 9925 25941 48224 45520 18077
40454 39726 21653 31949 11358 11863 35715 9475 23917 30180 21776 9371 43467 39608 29716 40441 14418 13158 28868 5423 49230 18407 14505 30129 39627 15285 19255 50930 14111 14067 43454 0 8766 22383 2442 35100 12883 7225 44454 4252 47065 20477 40076 13048 29995 36133 33848 15483 8206 27029
48227 47170 29099 40607 9863 12932 42934 8182 31601 38150 25974 8561 52227 47149 38291 48872 19053 11219 34560 14161 57755 26227 22279 35457 48385 19172 24246 59166 22877 22294 51760 8766 0 26733 10742 37228 19235 15032 52929 12987 55063 29179 47236 16242 37128 44776 42337 19313 13105 35734
27136 24772 12184 28181 18087 14268 20229 31584 14424 39843 842 31574 40436 25147 25281 45221 34847 35356 8892 21824 40733 13512 13373 9126 39137 36201 38494 39594 21610 27509 33425 22383 26733 0 20284 14258 31631 25732 35916 21906 34400 26995 51677 34676 15211 31148 39182 36414 29694 25690
38052 37295 19213 29865 11305 10994 33274 11871 21494 29366 19714 11740 41570 37183 27558 39200 15514 15511 26521 4200 47044 15991 12077 27823 37882 16579 20063 48624 12316 13268 41168 2442 10742 20284 0 33335 13370 7237 42239 3227 44701 18957 39689 14627 27552 34034 32569 16785 9644 25007
33773 30560 25127 39791 27428 24419 26779 43586 26640 53769 14465 43682 51098 31280 37051 58101 48532 47328 16094 35547 48687 27305 27614 14342 50836 49772 52463 45838 35856 41749 41301 35100 37228 14258 33335 0 45562 39493 44363 35454 40314 40990 65641 47961 24148 41916 52432 49983 42971 38368
41596 41940 25818 29167 24241 24362 38828 13297 27012 19731 31252 12788 38272 41543 27919 31351 4139 14339 35680 10113 46515 22141 19473 37387 33501 5862 6907 49732 12924 7082 42269 12883 19235 31631 13370 45562 0 6238 42278 10471 47038 15103 28012 6730 33838 33165 25282 6042 6245 24208
38632 38517 21306 27889 18393 18215 34994 11588 22946 23169 25303 11186 38454 38233 26101 33883 9117 14155 30475 3945 45443 17648 14408 32066 34169 10530 13097 47933 9912 7294 40392 7225 15032 25732 7237 39493 6238 0 40891 4234 44662 14829 32853 9530 29638 32062 27399 10743 5217 22821
11127 14565 25523 13122 48964 45565 17631 52342 22750 30983 36564 51984 10597 13680 14828 24926 46295 55038 28857 39550 4947 27277 31039 30259 14616 47989 45815 7888 31036 35258 3381 44454 52929 35916 42239 44363 42278 40891 0 40631 8428 27197 39178 48872 20936 9163 24108 48140 45929 18156
37236 36764 18950 27954 14532 14052 32956 12088 20951 26206 21423 11828 39301 36574 25828 36246 13081 15388 27299 1174 45351 15453 11772 28768 35399 14336 17305 47302 9947 10082 39787 4252 12987 21906 3227 35454 10471 4234 40631 0 43641 16224 36463 12804 27373 32149 29639 14548 7878 22978
7282 9902 26172 18613 49701 46028 14268 55684 23529 38237 35155 55384 19026 9347 19199 33198 51159 58720 26176 42665 9994 28835 32785 27115 22849 52881 51385 5526 34793 39961 5853 47065 55063 34400 44701 40314 47038 44662 8428 43641 0 32375 47178 53360 19334 15615 31784 53051 49854 23081
27596 28566 16452 14118 29255 27291 26308 26352 16169 12855 27024 25923 23663 28009 13188 20486 19098 28520 27166 15054 31413 13705 13983 29161 19354 20793 19021 34737 6971 8201 27345 20477 29179 26995 18957 40990 15103 14829 27197 16224 32375 0 24683 21764 22471 18066 13847 20944 19368 9300
45610 47914 40766 30705 50988 50034 47349 40884 39897 11876 51693 40367 29526 47100 32163 14816 29111 40817 51218 35547 40916 38335 38528 53244 24640 29792 24466 46700 30631 26561 41327 40076 47236 51677 39689 65641 28012 32853 39178 36463 47178 24683 0 32627 45180 32070 15674 29756 34226 29072
47658 47760 30817 35749 23641 24821 44381 8577 32369 25750 34166 8080 45001 47426 34364 37625 3582 8257 39933 13075 53170 27147 23934 41474 40208 2998 8363 56241 18723 13615 48743 13048 16242 34676 14627 47961 6730 9530 48872 12804 53360 21764 32627 0 39111 39793 31757 3110 4997 30743
12054 10198 8423 16132 30730 26959 5809 39286 6829 33661 15927 39086 26951 10353 13689 35175 37855 42737 8115 26646 25651 12004 15616 9810 26965 39520 39763 24417 20976 27423 18276 29995 37128 15211 27552 24148 33838 29638 20936 27373 19334 22471 45180 39111 0 17810 30329 39721 34735 16146
13684 16384 19433 4197 41788 38669 17171 43602 16844 22630 31655 43224 9309 15495 6630 19141 37160 46159 25823 31029 13408 20225 23624 27606 9513 38849 36661 16897 22335 26179 9925 36133 44776 31148 34034 41916 33165 32062 9163 32149 15615 18066 32070 39793 17810 0 16439 38997 37011 9245
29935 32273 27330 15115 43093 41113 31929 38237 25881 7470 39375 37753 15703 31448 16844 6647 28363 39620 37099 28498 26597 25726 27139 39110 10363 29764 25803 31884 20819 20107 25941 33848 42337 39182 32569 52432 25282 27399 24108 29639 31784 13847 15674 31757 30329 16439 0 29840 30965 14294
47639 47964 31584 35058 26401 27342 44797 11683 32910 23484 35954 11187 43653 47574 33902 35475 1903 11065 41140 14596 52285 27897 24970 42769 38714 213 5337 55661 18906 13092 48224 15483 19313 36414 16785 49983 6042 10743 48140 14548 53051 20944 29756 3110 39721 38997 29840 0 7279 30148
43849 43718 26356 32866 19215 20063 40151 7272 28093 25827 29177 6787 43012 43442 31187 37224 6352 9168 35137 8271 50415 22731 19320 36633 38512 7083 11437 53057 15070 11278 45520 8206 13105 29694 9644 42971 6245 5217 45929 7878 49854 19368 34226 4997 34735 37011 30965 7279 0 27798
18619 20012 13529 5070 33490 30672 18552 34357 11728 17772 26006 33978 16747 19351 3953 19734 28277 36934 22825 21845 22625 12863 15548 24830 13945 29988 28304 25523 13107 17148 18077 27029 35734 25690 25007 38368 24208 22821 18156 22978 23081 9300 29072 30743 16146 9245 14294 30148 27798 0
EOF
